
Gurobi 10.0.0 (win64) logging started Thu Jun 13 22:14:53 2024

Set parameter LogFile to value "C:\Users\ealvarezq\Documents\GitHub\Comillas\Models\JointResearch\05. Models\06.Benchmarking\L.Cont_Investments_per_hour\RTS24_mod2_ByStages_nc200/openStarNet_RTS24_mod2_ByStages_nc200.log"
Set parameter Method to value 2
Set parameter MIPFocus to value 1
Set parameter Presolve to value 2
Set parameter RINS to value 100
Set parameter MIPGap to value 0.01
Set parameter Threads to value 9
Set parameter TimeLimit to value 259200
Set parameter IterationLimit to value 760000000
Gurobi Optimizer version 10.0.0 build v10.0.0rc2 (win64)

CPU model: Intel(R) Core(TM) i7-8700 CPU @ 3.20GHz, instruction set [SSE2|AVX|AVX2]
Thread count: 6 physical cores, 12 logical processors, using up to 9 threads

Optimize a model with 71003 rows, 47820 columns and 193235 nonzeros
Model fingerprint: 0xf8aed63c
Variable types: 47799 continuous, 21 integer (21 binary)
Coefficient statistics:
  Matrix range     [1e-03, 1e+03]
  Objective range  [1e+00, 1e+00]
  Bounds range     [3e-05, 3e+00]
  RHS range        [3e-05, 3e+00]
Presolve removed 42246 rows and 24178 columns
Presolve time: 0.26s
Presolved: 28757 rows, 23642 columns, 103757 nonzeros
Variable types: 23621 continuous, 21 integer (21 binary)
Root relaxation presolved: 28757 rows, 23642 columns, 103757 nonzeros

Root barrier log...

Ordering time: 0.01s

Barrier statistics:
 Dense cols : 21
 AA' NZ     : 1.927e+05
 Factor NZ  : 5.360e+05 (roughly 26 MB of memory)
 Factor Ops : 1.194e+07 (less than 1 second per iteration)
 Threads    : 8

                  Objective                Residual
Iter       Primal          Dual         Primal    Dual     Compl     Time
   0   6.84178064e+05 -4.52514859e+08  5.44e+00 5.29e+02  1.93e+04     0s
   1   1.08371002e+05 -1.19376671e+08  7.41e-01 1.20e-08  2.74e+03     0s
   2   4.05130895e+04 -2.54103730e+07  1.73e-01 8.10e-08  4.76e+02     0s
   3   2.09076239e+04 -2.66799271e+06  4.95e-03 1.35e-09  4.07e+01     0s
   4   1.39014980e+04 -1.60511959e+05  7.00e-13 1.78e-10  2.60e+00     1s
   5   5.01862866e+03 -4.78083793e+04  8.02e-13 4.46e-11  7.89e-01     1s
   6   1.65548239e+03 -1.27455180e+04  3.62e-13 1.09e-11  2.15e-01     1s
   7   5.27470570e+02 -4.42967446e+03  1.73e-13 3.36e-12  7.40e-02     1s
   8   2.57185334e+02 -1.17081847e+03  1.45e-13 2.16e-12  2.13e-02     1s
   9   1.56866893e+02 -3.49308726e+02  1.23e-13 1.91e-12  7.56e-03     1s
  10   1.13038761e+02 -1.12133773e+02  1.22e-13 1.13e-12  3.36e-03     1s
  11   8.22357244e+01 -1.82634601e+01  2.17e-13 3.04e-12  1.50e-03     1s
  12   6.95422915e+01  2.19216353e+01  3.87e-13 1.56e-12  7.11e-04     1s
  13   6.21299308e+01  3.18990500e+01  8.42e-13 1.04e-12  4.51e-04     1s
  14   5.79573896e+01  4.24263321e+01  1.99e-12 1.96e-12  2.32e-04     1s
  15   5.43431035e+01  4.49066011e+01  3.23e-12 1.50e-12  1.41e-04     1s
  16   5.32326017e+01  4.64546958e+01  4.17e-12 2.19e-12  1.01e-04     1s
  17   5.23306869e+01  4.81197980e+01  4.78e-12 1.60e-12  6.29e-05     1s
  18   5.19252411e+01  4.84083275e+01  3.58e-12 7.25e-13  5.25e-05     1s
  19   5.15763306e+01  4.88359700e+01  6.29e-12 1.49e-12  4.09e-05     1s
  20   5.12296268e+01  4.97629350e+01  8.55e-12 1.86e-12  2.19e-05     1s
  21   5.10390843e+01  5.00961632e+01  9.42e-12 2.32e-12  1.41e-05     1s
  22   5.08677793e+01  5.02197853e+01  1.23e-11 1.74e-12  9.68e-06     1s
  23   5.07879652e+01  5.03997097e+01  1.41e-11 2.14e-12  5.80e-06     1s
  24   5.07628519e+01  5.04373539e+01  8.34e-12 1.05e-12  4.86e-06     1s
  25   5.07028631e+01  5.04932106e+01  1.53e-11 8.98e-13  3.13e-06     1s
  26   5.06927965e+01  5.05513937e+01  1.93e-11 1.97e-12  2.11e-06     1s
  27   5.06813658e+01  5.05816752e+01  1.72e-11 1.97e-12  1.49e-06     1s
  28   5.06751164e+01  5.06117131e+01  2.66e-11 1.63e-12  9.47e-07     1s
  29   5.06738230e+01  5.06179450e+01  2.40e-11 3.73e-12  8.34e-07     1s
  30   5.06687414e+01  5.06352901e+01  2.98e-11 3.86e-12  5.00e-07     1s
  31   5.06681657e+01  5.06364000e+01  3.33e-11 3.42e-12  4.74e-07     1s
  32   5.06666607e+01  5.06462355e+01  4.49e-11 2.31e-12  3.05e-07     1s
  33   5.06648474e+01  5.06560696e+01  1.52e-10 9.77e-13  1.31e-07     1s
  34   5.06645639e+01  5.06572274e+01  5.68e-11 1.64e-12  1.10e-07     1s
  35   5.06645268e+01  5.06594776e+01  4.93e-11 1.74e-12  7.54e-08     1s
  36   5.06644731e+01  5.06616879e+01  6.45e-11 1.85e-12  4.16e-08     1s
  37   5.06643847e+01  5.06622898e+01  3.89e-10 1.20e-12  3.13e-08     1s
  38   5.06643432e+01  5.06637173e+01  4.01e-10 2.71e-12  9.35e-09     1s
  39   5.06643281e+01  5.06639442e+01  2.50e-10 1.34e-12  5.73e-09     1s
  40   5.06643169e+01  5.06640165e+01  1.72e-10 8.46e-13  4.49e-09     1s
  41   5.06643052e+01  5.06640774e+01  1.84e-09 1.12e-12  3.40e-09     1s
  42   5.06643024e+01  5.06641955e+01  8.41e-10 3.05e-12  1.60e-09     1s
  43   5.06642963e+01  5.06642844e+01  2.38e-10 2.23e-12  1.78e-10     1s
  44   5.06642959e+01  5.06642956e+01  9.15e-10 3.87e-12  4.08e-12     1s

Barrier solved model in 44 iterations and 1.02 seconds (0.93 work units)
Optimal objective 5.06642959e+01


Root relaxation: objective 5.066430e+01, 3349 iterations, 0.91 seconds (0.81 work units)

    Nodes    |    Current Node    |     Objective Bounds      |     Work
 Expl Unexpl |  Obj  Depth IntInf | Incumbent    BestBd   Gap | It/Node Time

     0     0   50.66430    0   17          -   50.66430      -     -    1s
H    0     0                     100.6048650   50.66430  49.6%     -    2s
H    0     0                      90.1596830   51.81180  42.5%     -    4s
     0     0   51.81180    0   12   90.15968   51.81180  42.5%     -    4s
H    0     0                      86.6698071   51.92403  40.1%     -    5s
     0     0   51.92403    0   11   86.66981   51.92403  40.1%     -    6s
     0     0   51.93774    0   10   86.66981   51.93774  40.1%     -    6s
     0     0   51.94640    0   11   86.66981   51.94640  40.1%     -    6s
     0     0   51.95223    0   10   86.66981   51.95223  40.1%     -    6s
     0     0   51.97172    0   10   86.66981   51.97172  40.0%     -    6s
     0     0   51.97266    0   10   86.66981   51.97266  40.0%     -    6s
     0     0   52.08218    0   11   86.66981   52.08218  39.9%     -    7s
     0     0   52.14400    0   15   86.66981   52.14400  39.8%     -    7s
     0     0   52.16349    0   13   86.66981   52.16349  39.8%     -    8s
     0     0   52.17080    0   13   86.66981   52.17080  39.8%     -    8s
     0     0   52.17250    0   13   86.66981   52.17250  39.8%     -    8s
     0     0   52.17250    0   13   86.66981   52.17250  39.8%     -    9s
     0     0   52.27841    0   12   86.66981   52.27841  39.7%     -   10s
     0     0   52.28306    0   12   86.66981   52.28306  39.7%     -   10s
     0     0   52.28685    0   12   86.66981   52.28685  39.7%     -   10s
     0     0   52.29044    0   12   86.66981   52.29044  39.7%     -   10s
     0     0   52.29153    0   12   86.66981   52.29153  39.7%     -   10s
     0     0   52.29603    0   12   86.66981   52.29603  39.7%     -   10s
     0     0   52.29705    0   12   86.66981   52.29705  39.7%     -   11s
     0     0   52.29729    0   12   86.66981   52.29729  39.7%     -   11s
     0     0   52.29749    0   12   86.66981   52.29749  39.7%     -   11s
     0     0   52.29923    0   12   86.66981   52.29923  39.7%     -   12s
H    0     0                      83.3894653   52.29923  37.3%     -   13s
     0     0   52.29944    0   12   83.38947   52.29944  37.3%     -   13s
H    0     0                      73.3278837   52.29944  28.7%     -   17s
H    0     0                      69.6142742   52.29944  24.9%     -   73s
     0     2   52.29944    0   12   69.61427   52.29944  24.9%     -   74s
     1     4   52.41326    1   15   69.61427   52.30078  24.9%  1513   75s
    15    25   53.69975    4   16   69.61427   53.65211  22.9%  2029   81s
    33    43   55.25062    5   14   69.61427   54.52695  21.7%  1691   86s
    51    57   57.28185    7   13   69.61427   54.52695  21.7%  1693   91s
H   56    57                      69.3800190   54.52695  21.4%  1686   91s
    71    68   58.80090    8   13   69.38002   54.52695  21.4%  1721   96s
    92    82   63.32735   10   11   69.38002   54.52695  21.4%  1741  112s
   117   103   66.25154   11   10   69.38002   54.52695  21.4%  1692  117s
   144   107     cutoff   11        69.38002   54.54204  21.4%  1600  121s
   181   109   59.57197    8   13   69.38002   54.95140  20.8%  1562  128s
   199   114   63.80767    9   12   69.38002   54.95140  20.8%  1562  221s
   247   133     cutoff   10        69.38002   54.95140  20.8%  1485  228s
   271   141   68.02505   10   11   69.38002   54.95140  20.8%  1457  231s
   293   141     cutoff   11        69.38002   55.46383  20.1%  1430  235s
   355   153   63.21667    7   10   69.38002   55.46383  20.1%  1373  244s
   383   151   64.31603    7    8   69.38002   55.46383  20.1%  1355  248s
   421   171   65.80418    8   12   69.38002   55.46383  20.1%  1319  252s
   445   178   66.32612    9   11   69.38002   55.46383  20.1%  1314  257s
   488   182     cutoff   10        69.38002   55.46383  20.1%  1287  262s
   524   181     cutoff   10        69.38002   55.46383  20.1%  1270  267s
   569   184     cutoff   10        69.38002   57.97503  16.4%  1240  273s
   600   189     cutoff    8        69.38002   59.19847  14.7%  1245  393s
   621   191   65.10792    8   10   69.38002   59.19847  14.7%  1246  399s
   673   182     cutoff   12        69.38002   60.50983  12.8%  1222  405s
   725   188     cutoff   15        69.38002   60.92938  12.2%  1208  411s
   765   202   69.00340   12    9   69.38002   61.02466  12.0%  1215  418s
   829   234     cutoff   10        69.38002   62.05657  10.6%  1190  424s
   889   244   67.79897   14    7   69.38002   62.05927  10.6%  1166  509s
   957   252   65.02146   11   10   69.38002   62.40158  10.1%  1145  518s
  1033   271   63.29457   10   11   69.38002   62.91678  9.32%  1112  525s
  1135   267   68.00812   11    7   69.38002   62.97787  9.23%  1074  535s
  1163   268   65.52821   11   10   69.38002   62.97787  9.23%  1070  543s
  1246   278     cutoff   16        69.38002   63.24318  8.85%  1055  552s
  1326   284     cutoff   14        69.38002   63.62562  8.29%  1048  561s
  1444   295   67.70688   14    7   69.38002   64.01973  7.73%  1020  570s
  1564   299     cutoff   13        69.38002   64.21745  7.44%   991  582s
  1594   302   68.54908   12    9   69.38002   64.23657  7.41%   990  654s
  1696   299     cutoff   11        69.38002   64.63396  6.84%   967  731s
  1767   314   69.24031   14    7   69.38002   64.64271  6.83%   961  743s
  1932   311     cutoff   10        69.38002   65.00708  6.30%   938  764s
  1959   314     cutoff   11        69.38002   65.14745  6.10%   939  777s
  2147   307   68.42694   12    9   69.38002   65.49963  5.59%   912  790s
  2348   268     cutoff    9        69.38002   65.93813  4.96%   888  804s
  2582   257     cutoff   11        69.38002   66.26335  4.49%   855  859s
  2779   160     cutoff   18        69.38002   66.68839  3.88%   831  948s
  3072     5   69.34323   13    8   69.38002   67.50074  2.71%   789  972s

Cutting planes:
  Implied bound: 256
  MIR: 878
  Relax-and-lift: 105

Explored 3348 nodes (2531466 simplex iterations) in 972.85 seconds (1854.15 work units)
Thread count was 9 (of 12 available processors)

Solution count 7: 69.38 69.6143 73.3279 ... 100.605

Optimal solution found (tolerance 1.00e-02)
Best objective 6.938001901085e+01, best bound 6.898435817349e+01, gap 0.5703%

Gurobi 10.0.0 (win64) logging started Thu Jun 13 22:31:35 2024

Set parameter LogFile to value "C:\Users\ealvarezq\Documents\GitHub\Comillas\Models\JointResearch\05. Models\06.Benchmarking\L.Cont_Investments_per_hour\RTS24_mod2_ByStages_nc200/openStarNet_RTS24_mod2_ByStages_nc200.log"
Set parameter Method to value 2
Set parameter MIPFocus to value 1
Set parameter Presolve to value 2
Set parameter RINS to value 100
Set parameter MIPGap to value 0.01
Set parameter Threads to value 9
Set parameter TimeLimit to value 259200
Set parameter IterationLimit to value 760000000
Gurobi Optimizer version 10.0.0 build v10.0.0rc2 (win64)

CPU model: Intel(R) Core(TM) i7-8700 CPU @ 3.20GHz, instruction set [SSE2|AVX|AVX2]
Thread count: 6 physical cores, 12 logical processors, using up to 9 threads

Optimize a model with 71003 rows, 47799 columns and 176414 nonzeros
Model fingerprint: 0x696f011b
Coefficient statistics:
  Matrix range     [1e-03, 1e+03]
  Objective range  [1e+00, 1e+00]
  Bounds range     [3e-05, 3e+00]
  RHS range        [3e-05, 2e+01]
Presolve removed 59806 rows and 27660 columns
Presolve time: 0.09s
Presolved: 11197 rows, 20525 columns, 50543 nonzeros

Ordering time: 0.00s

Barrier statistics:
 AA' NZ     : 2.936e+04
 Factor NZ  : 1.101e+05 (roughly 11 MB of memory)
 Factor Ops : 1.609e+06 (less than 1 second per iteration)
 Threads    : 9

                  Objective                Residual
Iter       Primal          Dual         Primal    Dual     Compl     Time
   0   4.11152222e+06 -2.56429904e+08  3.42e+01 4.52e+02  8.04e+04     0s
   1   2.52299221e+05 -1.65106965e+08  1.89e+00 1.46e-11  8.07e+03     0s
   2   5.28408987e+04 -3.05156791e+07  2.98e-01 1.27e-11  1.14e+03     0s
   3   2.49090174e+04 -4.39284248e+06  1.74e-02 1.64e-11  1.30e+02     0s
   4   1.90064988e+04 -1.50058800e+06  7.29e-04 8.19e-12  4.24e+01     0s
   5   1.31384654e+04 -1.68792253e+05  6.76e-12 9.09e-12  5.06e+00     0s
   6   5.52260319e+03 -3.87724727e+04  6.50e-12 2.91e-11  1.23e+00     0s
   7   1.61802799e+03 -9.51105705e+03  3.95e-12 2.91e-12  3.10e-01     0s
   8   5.53810480e+02 -2.85647891e+03  3.30e-12 2.73e-12  9.49e-02     0s
   9   1.94668546e+02 -9.92479021e+02  2.02e-12 1.66e-12  3.30e-02     0s
  10   1.26281608e+02 -9.80092787e+01  3.20e-12 2.87e-12  6.24e-03     0s
  11   9.29807271e+01 -4.15704096e+00  4.55e-12 1.92e-12  2.70e-03     0s
  12   8.03497715e+01  4.23056642e+01  4.77e-12 2.52e-12  1.06e-03     0s
  13   7.50622341e+01  6.08674538e+01  1.95e-11 1.47e-12  3.95e-04     0s
  14   7.24191267e+01  6.61968963e+01  2.20e-11 1.37e-12  1.73e-04     0s
  15   7.05543361e+01  6.83678719e+01  3.56e-11 1.62e-12  6.08e-05     0s
  16   6.97008684e+01  6.91950694e+01  1.13e-10 1.41e-12  1.41e-05     0s
  17   6.94815087e+01  6.93269041e+01  4.32e-11 2.64e-12  4.30e-06     0s
  18   6.93947372e+01  6.93747499e+01  3.83e-10 1.94e-12  5.56e-07     0s
  19   6.93804957e+01  6.93795596e+01  2.58e-09 2.71e-12  2.60e-08     0s
  20   6.93800207e+01  6.93800159e+01  4.55e-09 2.83e-12  1.34e-10     0s
  21   6.93800190e+01  6.93800190e+01  2.56e-10 2.56e-12  7.55e-15     0s

Barrier solved model in 21 iterations and 0.25 seconds (0.23 work units)
Optimal objective 6.93800190e+01

Crossover log...

    2248 DPushes remaining with DInf 0.0000000e+00                 0s
       0 DPushes remaining with DInf 0.0000000e+00                 0s

     699 PPushes remaining with PInf 0.0000000e+00                 0s
       0 PPushes remaining with PInf 0.0000000e+00                 0s

  Push phase complete: Pinf 0.0000000e+00, Dinf 2.3184594e-13      0s

Iteration    Objective       Primal Inf.    Dual Inf.      Time
     764    6.9380019e+01   0.000000e+00   0.000000e+00      0s

Use crossover to convert LP symmetric solution to basic solution...
Crossover log...

       0 DPushes remaining with DInf 0.0000000e+00                 0s

     359 PPushes remaining with PInf 0.0000000e+00                 0s
       0 PPushes remaining with PInf 0.0000000e+00                 0s

  Push phase complete: Pinf 0.0000000e+00, Dinf 1.9511975e-13      0s

Iteration    Objective       Primal Inf.    Dual Inf.      Time
    1166    6.9380019e+01   0.000000e+00   0.000000e+00      0s

Solved in 1166 iterations and 0.39 seconds (0.29 work units)
Optimal objective  6.938001901e+01
